60
1 0 9
3 1 14
3 2 4
4 3 6
5 0 4
5 2 1
5 3 12
5 4 1
6 3 12
7 2 4
7 3 12
7 5 6
7 6 14
8 0 5
8 1 7
8 3 2
8 4 8
8 6 13
8 7 8
9 0 6
9 2 5
9 4 11
9 6 8
10 0 1
10 4 9
10 5 11
10 6 13
11 1 14
11 3 5
11 4 1
11 5 7
11 7 12
11 10 9
12 0 12
12 2 14
12 6 14
12 8 1
12 9 9
12 10 8
12 11 7
13 0 13
13 4 12
13 5 1
13 6 12
13 7 8
13 8 12
13 9 11
13 12 1
14 0 4
14 1 14
14 3 6
14 4 11
14 9 8
14 10 3
14 11 10
14 12 9
15 6 14
15 7 14
15 8 14
15 10 1
15 11 2
16 5 14
16 6 6
16 7 3
16 8 6
16 9 1
16 10 14
16 11 2
16 12 2
16 13 13
17 1 1
17 5 3
17 7 13
17 8 12
17 9 9
17 13 6
17 14 14
18 0 9
18 1 3
18 4 1
18 5 2
18 6 3
18 7 12
18 9 4
18 12 11
18 13 14
18 15 8
18 16 14
18 17 10
19 0 5
19 1 3
19 5 11
19 7 3
19 8 11
19 9 10
19 11 7
19 13 14
19 14 10
19 15 13
20 0 2
20 7 13
20 8 6
20 9 3
20 11 3
20 13 2
20 17 2
21 3 8
21 11 2
21 15 6
21 16 1
21 18 1
22 1 10
22 4 6
22 5 6
22 11 14
22 17 14
22 21 14
23 0 2
23 1 9
23 3 4
23 6 12
23 7 1
23 8 5
23 11 13
23 13 3
23 18 6
23 19 10
23 20 14
23 21 12
23 22 10
24 0 9
24 1 7
24 2 5
24 4 1
24 7 12
24 11 8
24 13 3
24 14 5
24 15 11
24 16 3
24 17 12
24 18 9
24 19 4
24 20 1
24 22 3
25 4 4
25 8 9
25 9 11
25 10 10
25 15 12
25 19 5
25 20 4
25 21 13
25 23 6
25 24 8
26 2 3
26 4 13
26 6 7
26 7 14
26 12 2
26 13 13
26 14 5
26 16 9
26 19 1
27 1 10
27 4 7
27 6 4
27 8 11
27 9 10
27 10 8
27 11 13
27 12 6
27 16 2
27 17 1
27 18 5
27 19 6
27 20 13
27 22 5
27 25 5
27 26 3
28 0 3
28 3 13
28 5 4
28 7 10
28 10 9
28 11 14
28 12 11
28 13 1
28 15 7
28 19 2
28 20 3
28 23 10
28 25 11
28 26 11
28 27 14
29 0 3
29 5 14
29 7 10
29 9 11
29 11 8
29 15 1
29 16 1
29 17 5
29 18 1
29 19 12
29 22 9
29 23 1
29 24 9
30 1 5
30 2 2
30 6 11
30 7 11
30 8 1
30 10 1
30 12 9
30 13 6
30 14 9
30 17 1
30 18 7
30 19 13
30 20 8
30 22 2
30 23 4
30 26 9
30 27 6
30 28 11
31 0 4
31 1 11
31 2 14
31 3 9
31 7 10
31 8 11
31 9 3
31 11 11
31 13 10
31 14 14
31 18 5
31 19 9
31 20 10
31 21 3
31 22 7
31 27 3
31 28 11
32 3 7
32 4 5
32 5 14
32 6 5
32 9 7
32 10 10
32 15 3
32 18 7
32 24 1
32 25 1
32 29 13
32 31 12
33 0 1
33 3 6
33 4 2
33 7 7
33 10 5
33 12 7
33 14 2
33 17 14
33 18 3
33 21 10
33 24 8
33 25 3
33 27 8
33 28 6
33 31 11
34 0 2
34 5 10
34 6 13
34 8 1
34 9 11
34 11 9
34 12 11
34 13 7
34 15 9
34 16 13
34 17 7
34 18 13
34 21 2
34 23 13
34 24 6
34 26 13
34 29 5
34 30 11
34 31 3
34 32 5
35 1 14
35 3 5
35 6 5
35 7 13
35 8 10
35 10 8
35 11 14
35 12 5
35 15 9
35 16 9
35 18 7
35 19 8
35 20 3
35 23 12
35 24 1
35 26 11
35 27 5
35 28 7
35 32 5
36 0 11
36 1 6
36 2 12
36 4 10
36 8 2
36 9 13
36 10 4
36 14 5
36 15 4
36 16 12
36 17 2
36 18 4
36 19 2
36 20 6
36 22 10
36 23 12
36 24 11
36 26 4
36 28 1
36 34 2
37 0 3
37 1 3
37 2 7
37 5 4
37 6 8
37 7 6
37 9 1
37 11 5
37 13 14
37 15 14
37 19 2
37 20 5
37 21 4
37 27 11
37 32 5
37 34 1
37 35 1
37 36 4
38 0 3
38 1 7
38 2 5
38 7 6
38 11 13
38 12 6
38 13 6
38 17 9
38 18 12
38 19 13
38 21 11
38 23 13
38 25 2
38 27 8
38 28 11
38 29 9
38 30 13
38 31 1
38 33 5
38 35 5
38 36 2
39 8 11
39 9 11
39 10 8
39 11 9
39 12 14
39 15 6
39 16 2
39 19 1
39 20 1
39 21 11
39 22 14
39 24 4
39 25 6
39 27 2
39 29 8
39 33 3
39 34 12
39 35 4
39 37 7
39 38 11
40 4 3
40 6 3
40 8 7
40 10 8
40 12 13
40 13 4
40 15 10
40 16 12
40 19 10
40 21 13
40 22 13
40 23 14
40 24 13
40 25 9
40 28 2
40 31 6
40 32 9
40 33 6
40 34 11
40 37 12
40 38 10
40 39 5
41 0 14
41 1 11
41 3 8
41 4 8
41 6 10
41 7 13
41 8 12
41 11 3
41 12 8
41 13 13
41 14 6
41 16 1
41 17 2
41 19 12
41 20 2
41 22 1
41 24 8
41 26 11
41 27 5
41 28 4
41 31 12
41 35 14
41 37 3
41 39 3
41 40 8
42 0 1
42 1 1
42 2 9
42 3 1
42 4 4
42 5 1
42 6 6
42 9 6
42 11 2
42 12 2
42 14 4
42 15 4
42 16 3
42 19 11
42 20 11
42 21 14
42 24 14
42 25 8
42 27 2
42 29 5
42 31 1
42 32 1
42 33 7
42 35 13
42 36 13
42 37 13
42 39 3
42 40 7
42 41 14
43 0 8
43 5 6
43 9 9
43 11 3
43 12 10
43 13 1
43 14 12
43 15 9
43 16 7
43 19 9
43 20 5
43 21 11
43 22 7
43 24 6
43 27 4
43 28 8
43 29 3
43 30 10
43 31 6
43 33 10
43 34 11
43 36 10
43 40 1
43 42 6
44 0 2
44 1 8
44 2 11
44 4 1
44 11 7
44 14 4
44 16 8
44 18 8
44 21 7
44 22 3
44 25 5
44 26 4
44 27 6
44 28 9
44 29 8
44 30 13
44 33 13
44 34 5
44 42 2
45 0 1
45 3 4
45 8 10
45 9 7
45 12 2
45 15 1
45 17 6
45 19 1
45 20 2
45 22 9
45 23 11
45 25 9
45 26 14
45 28 11
45 29 8
45 30 1
45 31 11
45 32 11
45 33 4
45 34 7
45 35 7
45 37 6
45 38 2
45 39 4
45 40 1
45 43 14
45 44 4
46 1 6
46 2 13
46 3 8
46 5 7
46 6 9
46 11 12
46 12 4
46 13 3
46 16 14
46 18 4
46 22 6
46 23 6
46 26 3
46 29 9
46 30 5
46 33 13
46 34 4
46 35 3
46 36 8
46 39 7
46 44 5
47 2 12
47 3 2
47 4 9
47 6 1
47 14 8
47 15 8
47 16 3
47 17 11
47 18 11
47 23 2
47 24 4
47 26 2
47 28 13
47 29 9
47 31 10
47 32 8
47 34 14
47 37 14
47 39 13
47 40 7
47 41 2
47 44 14
47 45 6
47 46 9
48 0 8
48 4 13
48 10 9
48 11 10
48 16 5
48 20 14
48 21 13
48 22 2
48 23 6
48 25 8
48 27 10
48 30 12
48 32 14
48 33 8
48 35 10
48 36 6
48 39 11
48 41 11
48 44 9
48 45 10
48 47 2
49 0 5
49 1 5
49 3 8
49 6 7
49 7 1
49 9 11
49 10 7
49 11 4
49 12 7
49 16 14
49 18 1
49 20 2
49 21 2
49 23 14
49 24 6
49 25 2
49 34 6
49 39 6
49 43 5
49 45 3
49 46 10
50 0 8
50 1 2
50 3 11
50 4 12
50 5 10
50 10 13
50 11 6
50 12 7
50 13 3
50 16 8
50 17 10
50 18 8
50 19 14
50 24 12
50 26 14
50 27 11
50 28 6
50 29 12
50 31 8
50 32 11
50 34 8
50 35 9
50 36 1
50 37 7
50 39 2
50 44 4
50 46 8
50 47 14
50 48 5
50 49 7
51 0 6
51 1 6
51 3 5
51 4 4
51 10 5
51 11 11
51 13 12
51 15 1
51 16 11
51 17 6
51 20 14
51 21 5
51 22 7
51 25 7
51 27 11
51 29 7
51 30 11
51 34 5
51 35 6
51 37 7
51 39 3
51 40 4
51 43 7
51 44 2
51 48 3
51 49 14
52 0 2
52 4 9
52 5 11
52 7 1
52 9 3
52 15 11
52 16 6
52 19 11
52 21 5
52 22 6
52 25 8
52 32 7
52 34 9
52 38 5
52 39 14
52 40 1
52 44 12
52 45 11
52 47 6
52 48 14
52 50 11
52 51 11
53 1 6
53 2 4
53 6 11
53 9 4
53 12 10
53 13 1
53 14 11
53 18 3
53 22 3
53 23 3
53 28 7
53 30 8
53 35 1
53 36 9
53 37 10
53 41 4
53 42 10
53 43 13
53 47 2
53 48 8
53 51 14
53 52 11
54 0 5
54 3 10
54 4 3
54 5 7
54 8 3
54 9 8
54 10 12
54 11 7
54 13 9
54 15 2
54 16 10
54 17 2
54 18 2
54 20 6
54 21 1
54 22 5
54 24 3
54 27 9
54 28 13
54 30 6
54 31 2
54 32 5
54 33 8
54 34 13
54 35 9
54 38 5
54 40 2
54 41 13
54 43 7
54 44 2
54 46 10
54 49 9
54 53 1
55 3 12
55 5 11
55 8 7
55 9 12
55 13 10
55 14 13
55 15 12
55 16 5
55 23 1
55 26 7
55 29 14
55 32 9
55 33 7
55 34 7
55 37 9
55 41 14
55 46 13
55 48 14
55 52 10
56 0 6
56 1 2
56 2 7
56 3 5
56 4 1
56 6 4
56 9 8
56 11 7
56 13 6
56 14 13
56 15 3
56 16 10
56 19 5
56 20 14
56 23 6
56 24 14
56 27 7
56 31 3
56 32 11
56 34 11
56 35 7
56 38 14
56 39 8
56 41 1
56 42 12
56 44 4
56 45 11
56 47 11
56 48 10
56 51 9
56 52 1
56 53 14
56 54 2
56 55 8
57 1 7
57 2 5
57 3 8
57 5 11
57 6 2
57 7 4
57 8 6
57 10 10
57 12 5
57 20 13
57 22 3
57 23 9
57 24 13
57 30 14
57 31 4
57 33 11
57 34 7
57 35 14
57 36 12
57 37 3
57 39 12
57 42 5
57 46 9
57 47 3
57 49 8
57 51 5
57 52 4
57 54 2
57 55 12
58 9 4
58 14 2
58 15 8
58 17 5
58 18 6
58 20 9
58 21 5
58 22 11
58 24 2
58 26 3
58 27 3
58 28 1
58 31 6
58 32 6
58 37 3
58 40 14
58 42 13
58 49 4
58 50 13
58 51 11
58 54 11
59 0 12
59 1 10
59 2 6
59 4 11
59 6 4
59 11 12
59 17 8
59 18 4
59 19 10
59 22 6
59 24 7
59 27 4
59 28 8
59 30 9
59 32 4
59 33 2
59 34 12
59 35 8
59 40 6
59 42 14
59 43 4
59 44 6
59 46 4
59 47 12
59 49 13
59 53 2
59 54 13
